Route #1: 1 4 6 34 31 28 18 19 10 21 1 
Route #2: 1 3 26 23 33 8 13 2 30 12 1 
Route #3: 1 1 16 25 32 24 17 9 29 1 
Route #4: 1 37 11 27 22 5 7 1 
Route #5: 1 35 36 15 14 20 1 

Cost 1141.1
Time 0.2159


 * Another infos *

 Iterations: 38 Time: 0.2159 sec - 0.0036 min - 0.0001 horas
0.0000 h 0.0036 min
Problem dimension: 38
